
Gurobi 9.5.2 (mac64[arm]) logging started Mon May  1 21:33:29 2023

Set parameter LogFile to value "Java/output/special_iterative/scenario_seed_1_nJob_40_machineCount_2/mip_increment_1/log.txt"
Gurobi Optimizer version 9.5.2 build v9.5.2rc0 (mac64[arm])
Thread count: 8 physical cores, 8 logical processors, using up to 8 threads
Optimize a model with 2059 rows, 13280 columns and 141199 nonzeros
Model fingerprint: 0x679398f7
Variable types: 0 continuous, 13280 integer (13280 binary)
Coefficient statistics:
  Matrix range     [1e+00, 2e+02]
  Objective range  [6e+01, 3e+06]
  Bounds range     [1e+00, 1e+00]
  RHS range        [1e+00, 1e+00]
Found heuristic solution: objective 4237872.0000
Presolve removed 167 rows and 1647 columns
Presolve time: 0.16s
Presolved: 1892 rows, 11633 columns, 123776 nonzeros
Variable types: 0 continuous, 11633 integer (11633 binary)
Found heuristic solution: objective 2956096.0000

Root relaxation: objective 6.638152e+03, 1723 iterations, 0.08 seconds (0.17 work units)

    Nodes    |    Current Node    |     Objective Bounds      |     Work
 Expl Unexpl |  Obj  Depth IntInf | Incumbent    BestBd   Gap | It/Node Time

     0     0 6638.15249    0   94 2956096.00 6638.15249   100%     -    0s
H    0     0                    1917312.0000 6638.15249   100%     -    0s
H    0     0                    1363200.0000 6638.15249   100%     -    0s
H    0     0                    1360800.0000 6638.15249   100%     -    0s
H    0     0                    596816.00000 6638.15249  98.9%     -    0s
H    0     0                    474064.00000 6638.15249  98.6%     -    0s
H    0     0                    277936.00000 6638.15249  97.6%     -    0s
     0     0 6655.00453    0  139 277936.000 6655.00453  97.6%     -    0s
H    0     0                    277808.00000 6655.00453  97.6%     -    0s
H    0     0                    277744.00000 6655.15480  97.6%     -    0s
H    0     0                    8832.0000000 6655.15480  24.6%     -    0s
     0     0 6655.15480    0  140 8832.00000 6655.15480  24.6%     -    0s
H    0     0                    8800.0000000 6678.85139  24.1%     -    0s
     0     0 6678.85139    0  152 8800.00000 6678.85139  24.1%     -    0s
H    0     0                    8672.0000000 6678.85139  23.0%     -    0s
     0     0 6680.91873    0  158 8672.00000 6680.91873  23.0%     -    0s
     0     0 6681.67106    0  158 8672.00000 6681.67106  23.0%     -    0s
H    0     0                    7392.0000000 6681.67106  9.61%     -    0s
     0     0 6696.35088    0  150 7392.00000 6696.35088  9.41%     -    1s
H    0     0                    7280.0000000 6696.35088  8.02%     -    1s
     0     0 6696.35088    0   99 7280.00000 6696.35088  8.02%     -    1s
     0     0 6696.35088    0  136 7280.00000 6696.35088  8.02%     -    1s
     0     0 6696.35088    0  150 7280.00000 6696.35088  8.02%     -    1s
     0     0 6696.35088    0  149 7280.00000 6696.35088  8.02%     -    1s
     0     0 6696.35088    0  145 7280.00000 6696.35088  8.02%     -    1s
     0     0 6696.35088    0  148 7280.00000 6696.35088  8.02%     -    1s
     0     0 6710.91089    0  151 7280.00000 6710.91089  7.82%     -    1s
     0     0 6712.40739    0  164 7280.00000 6712.40739  7.80%     -    1s
     0     0 6712.51040    0  170 7280.00000 6712.51040  7.80%     -    1s
     0     0 6712.51522    0  172 7280.00000 6712.51522  7.80%     -    1s
H    0     0                    7248.0000000 6712.51522  7.39%     -    1s
H    0     0                    7232.0000000 6712.51522  7.18%     -    1s
     0     0 6731.17797    0  188 7232.00000 6731.17797  6.93%     -    1s
H    0     0                    6944.0000000 6731.17797  3.06%     -    1s
     0     0 6735.19688    0  205 6944.00000 6735.19688  3.01%     -    1s
     0     0 6735.67728    0  206 6944.00000 6735.67728  3.00%     -    1s
     0     0 6736.23724    0  207 6944.00000 6736.23724  2.99%     -    1s
     0     0 6736.27285    0  208 6944.00000 6736.27285  2.99%     -    1s
     0     0 6736.27285    0  209 6944.00000 6736.27285  2.99%     -    1s
     0     0 6749.08673    0  227 6944.00000 6749.08673  2.81%     -    1s
     0     0 6749.08673    0   97 6944.00000 6749.08673  2.81%     -    2s
     0     0 6749.08673    0  158 6944.00000 6749.08673  2.81%     -    2s
     0     0 6749.08673    0  157 6944.00000 6749.08673  2.81%     -    2s
     0     0 6749.08673    0  203 6944.00000 6749.08673  2.81%     -    2s
     0     0 6749.08673    0  196 6944.00000 6749.08673  2.81%     -    2s
     0     0 6749.08673    0  207 6944.00000 6749.08673  2.81%     -    2s
     0     0 6749.27233    0  210 6944.00000 6749.27233  2.80%     -    2s
     0     0 6749.32928    0  215 6944.00000 6749.32928  2.80%     -    2s
     0     0 6749.32928    0  218 6944.00000 6749.32928  2.80%     -    2s
     0     0 6753.64789    0  213 6944.00000 6753.64789  2.74%     -    2s
     0     0 6754.35336    0  221 6944.00000 6754.35336  2.73%     -    2s
     0     0 6755.06079    0  229 6944.00000 6755.06079  2.72%     -    2s
     0     0 6755.39944    0  235 6944.00000 6755.39944  2.72%     -    2s
     0     0 6755.46111    0  232 6944.00000 6755.46111  2.72%     -    2s
     0     0 6755.46799    0  235 6944.00000 6755.46799  2.72%     -    2s
     0     0 6763.96263    0  237 6944.00000 6763.96263  2.59%     -    2s
     0     0 6765.49205    0  249 6944.00000 6765.49205  2.57%     -    2s
     0     0 6766.84839    0  259 6944.00000 6766.84839  2.55%     -    2s
     0     0 6767.58073    0  258 6944.00000 6767.58073  2.54%     -    2s
     0     0 6767.63727    0  262 6944.00000 6767.63727  2.54%     -    2s
     0     0 6776.25293    0  256 6944.00000 6776.25293  2.42%     -    2s
     0     0 6777.50522    0  275 6944.00000 6777.50522  2.40%     -    2s
     0     0 6778.26355    0  263 6944.00000 6778.26355  2.39%     -    2s
     0     0 6778.46851    0  274 6944.00000 6778.46851  2.38%     -    2s
     0     0 6778.47405    0  275 6944.00000 6778.47405  2.38%     -    2s
     0     0 6779.73625    0  280 6944.00000 6779.73625  2.37%     -    2s
     0     0 6779.99818    0  293 6944.00000 6779.99818  2.36%     -    3s
     0     0 6780.04575    0  286 6944.00000 6780.04575  2.36%     -    3s
     0     0 6781.09371    0  279 6944.00000 6781.09371  2.35%     -    3s
     0     0 6781.29663    0  282 6944.00000 6781.29663  2.34%     -    3s
     0     0 6781.72776    0  291 6944.00000 6781.72776  2.34%     -    3s
     0     0 6781.76133    0  291 6944.00000 6781.76133  2.34%     -    3s
     0     0 6782.45273    0  289 6944.00000 6782.45273  2.33%     -    3s
     0     0 6782.85091    0  293 6944.00000 6782.85091  2.32%     -    3s
     0     0 6783.23417    0  297 6944.00000 6783.23417  2.32%     -    3s
     0     0 6783.26619    0  304 6944.00000 6783.26619  2.31%     -    3s
     0     0 6783.89844    0  300 6944.00000 6783.89844  2.31%     -    3s
     0     0 6783.94367    0  306 6944.00000 6783.94367  2.30%     -    3s
H    0     0                    6912.0000000 6783.94367  1.85%     -    3s
     0     0 6785.31373    0  297 6912.00000 6785.31373  1.83%     -    3s
     0     0 6785.31373    0  295 6912.00000 6785.31373  1.83%     -    3s
     0     0 6785.35292    0   98 6912.00000 6785.35292  1.83%     -    3s
     0     0 6785.35292    0  160 6912.00000 6785.35292  1.83%     -    3s
     0     0 6785.35292    0  206 6912.00000 6785.35292  1.83%     -    3s
     0     0 6785.35292    0  244 6912.00000 6785.35292  1.83%     -    3s
     0     0 6785.35292    0  255 6912.00000 6785.35292  1.83%     -    3s
     0     0 6785.35292    0  257 6912.00000 6785.35292  1.83%     -    3s
     0     0 6785.35292    0  271 6912.00000 6785.35292  1.83%     -    3s
     0     0 6785.35292    0  281 6912.00000 6785.35292  1.83%     -    3s
     0     0 6785.35292    0  284 6912.00000 6785.35292  1.83%     -    3s
     0     0 6785.40634    0  289 6912.00000 6785.40634  1.83%     -    3s
     0     0 6785.40706    0  290 6912.00000 6785.40706  1.83%     -    3s
     0     0 6785.99496    0  291 6912.00000 6785.99496  1.82%     -    3s
     0     0 6786.09043    0  285 6912.00000 6786.09043  1.82%     -    4s
     0     0 6790.35467    0  273 6912.00000 6790.35467  1.76%     -    4s
     0     0 6790.84731    0  280 6912.00000 6790.84731  1.75%     -    4s
     0     0 6791.17700    0  299 6912.00000 6791.17700  1.75%     -    4s
     0     0 6791.18315    0  296 6912.00000 6791.18315  1.75%     -    4s
     0     0 6793.59732    0  294 6912.00000 6793.59732  1.71%     -    4s
     0     0 6794.15286    0  320 6912.00000 6794.15286  1.70%     -    4s
     0     0 6794.61058    0  290 6912.00000 6794.61058  1.70%     -    4s
     0     0 6794.65383    0  295 6912.00000 6794.65383  1.70%     -    4s
     0     0 6795.28364    0  314 6912.00000 6795.28364  1.69%     -    4s
     0     0 6795.48212    0  295 6912.00000 6795.48212  1.69%     -    4s
     0     0 6795.51213    0  302 6912.00000 6795.51213  1.69%     -    4s
     0     0 6796.08031    0  300 6912.00000 6796.08031  1.68%     -    4s
     0     0 6796.08031    0  293 6912.00000 6796.08031  1.68%     -    4s
     0     2 6796.10394    0  293 6912.00000 6796.10394  1.68%     -    4s
    15    24 6856.81357    4  197 6912.00000 6798.09218  1.65%   451    5s
*  524   299              11    6896.0000000 6813.29515  1.20%   227    6s
H  701   345                    6880.0000000 6816.80981  0.92%   219    7s
H 2095   425                    6864.0000000 6842.00935  0.32%   188    9s
  2330   371 6853.78248   17  250 6864.00000 6845.47289  0.27%   184   10s

Cutting planes:
  Gomory: 1
  Cover: 9
  Clique: 80
  MIR: 138
  StrongCG: 56
  GUB cover: 82
  Zero half: 11
  Mod-K: 2
  RLT: 16

Explored 2584 nodes (484087 simplex iterations) in 10.19 seconds (22.89 work units)
Thread count was 8 (of 8 available processors)

Solution count 10: 6864 6880 6896 ... 7632

Optimal solution found (tolerance 1.00e-04)
Best objective 6.864000000000e+03, best bound 6.864000000000e+03, gap 0.0000%

Gurobi 9.5.2 (mac64[arm]) logging started Mon May  1 21:33:39 2023

Set parameter LogFile to value "Java/output/special_iterative/scenario_seed_1_nJob_40_machineCount_2/mip_increment_1/log.txt"
Gurobi Optimizer version 9.5.2 build v9.5.2rc0 (mac64[arm])
Thread count: 8 physical cores, 8 logical processors, using up to 8 threads
Optimize a model with 2059 rows, 10423 columns and 120936 nonzeros
Model fingerprint: 0x59932d09
Variable types: 0 continuous, 10423 integer (10423 binary)
Coefficient statistics:
  Matrix range     [1e+00, 2e+02]
  Objective range  [1e+02, 6e+05]
  Bounds range     [1e+00, 1e+00]
  RHS range        [1e+00, 1e+00]
Found heuristic solution: objective 1663724.0000
Presolve removed 599 rows and 1574 columns
Presolve time: 0.15s
Presolved: 1460 rows, 8849 columns, 101144 nonzeros
Variable types: 0 continuous, 8849 integer (8847 binary)
Found heuristic solution: objective 799072.00000

Root relaxation: objective 4.941639e+03, 1618 iterations, 0.07 seconds (0.17 work units)

    Nodes    |    Current Node    |     Objective Bounds      |     Work
 Expl Unexpl |  Obj  Depth IntInf | Incumbent    BestBd   Gap | It/Node Time

     0     0 4941.63852    0  135 799072.000 4941.63852  99.4%     -    0s
H    0     0                    373800.00000 4941.63852  98.7%     -    0s
H    0     0                    158380.00000 4941.63852  96.9%     -    0s
H    0     0                    158220.00000 4941.63852  96.9%     -    0s
     0     0 4952.94930    0  177 158220.000 4952.94930  96.9%     -    0s
H    0     0                    158180.00000 4952.94930  96.9%     -    0s
H    0     0                    5148.0000000 4952.94930  3.79%     -    0s
     0     0 4953.18699    0  174 5148.00000 4953.18699  3.78%     -    0s
     0     0 4953.82755    0  179 5148.00000 4953.82755  3.77%     -    0s
     0     0 4956.91936    0  193 5148.00000 4956.91936  3.71%     -    1s
     0     0 4956.91936    0  125 5148.00000 4956.91936  3.71%     -    1s
H    0     0                    5124.0000000 4956.91936  3.26%     -    1s
     0     0 4957.53111    0  212 5124.00000 4957.53111  3.25%     -    1s
     0     0 4958.57722    0  211 5124.00000 4958.57722  3.23%     -    1s
     0     0 4958.74346    0  210 5124.00000 4958.74346  3.23%     -    1s
     0     0 4958.75915    0  204 5124.00000 4958.75915  3.22%     -    1s
     0     0 4958.76251    0  208 5124.00000 4958.76251  3.22%     -    1s
     0     0 4963.00778    0  246 5124.00000 4963.00778  3.14%     -    1s
     0     0 4963.98346    0  239 5124.00000 4963.98346  3.12%     -    1s
     0     0 4964.12556    0  239 5124.00000 4964.12556  3.12%     -    1s
     0     0 4964.19789    0  239 5124.00000 4964.19789  3.12%     -    1s
     0     0 4964.24268    0  240 5124.00000 4964.24268  3.12%     -    1s
H    0     0                    5120.0000000 4964.24268  3.04%     -    1s
     0     0 4971.61805    0  277 5120.00000 4971.61805  2.90%     -    1s
     0     0 4974.59658    0  280 5120.00000 4974.59658  2.84%     -    1s
     0     0 4975.05224    0  279 5120.00000 4975.05224  2.83%     -    2s
     0     0 4975.17389    0  281 5120.00000 4975.17389  2.83%     -    2s
     0     0 4975.20788    0  281 5120.00000 4975.20788  2.83%     -    2s
     0     0 4975.21364    0  286 5120.00000 4975.21364  2.83%     -    2s
H    0     0                    5068.0000000 4975.21364  1.83%     -    2s
H    0     0                    5048.0000000 4975.21364  1.44%     -    2s
H    0     0                    5040.0000000 4975.21364  1.29%     -    2s
     0     0 4981.07326    0  276 5040.00000 4981.07326  1.17%     -    2s
     0     0 4982.85705    0  289 5040.00000 4982.85705  1.13%     -    2s
     0     0 4983.16213    0  309 5040.00000 4983.16213  1.13%     -    2s
     0     0 4983.26466    0  304 5040.00000 4983.26466  1.13%     -    2s
     0     0 4983.27365    0  301 5040.00000 4983.27365  1.13%     -    2s
     0     0 4985.16998    0  329 5040.00000 4985.16998  1.09%     -    2s
     0     0 4985.76323    0  308 5040.00000 4985.76323  1.08%     -    2s
     0     0 4985.91286    0  329 5040.00000 4985.91286  1.07%     -    2s
     0     0 4985.92520    0  327 5040.00000 4985.92520  1.07%     -    2s
     0     0 4987.52998    0  314 5040.00000 4987.52998  1.04%     -    2s
H    0     0                    5036.0000000 4987.52998  0.96%     -    2s
     0     0 4987.82964    0  337 5036.00000 4987.82964  0.96%     -    2s
     0     0 4987.89131    0  341 5036.00000 4987.89131  0.96%     -    2s
     0     0 4987.95563    0  339 5036.00000 4987.95563  0.95%     -    2s
     0     0 4987.98404    0  341 5036.00000 4987.98404  0.95%     -    2s
     0     0 4989.62883    0  341 5036.00000 4989.62883  0.92%     -    3s
     0     0 4989.86089    0  331 5036.00000 4989.86089  0.92%     -    3s
     0     0 4989.93242    0  333 5036.00000 4989.93242  0.91%     -    3s
     0     0 4989.95088    0  337 5036.00000 4989.95088  0.91%     -    3s
     0     0 4990.11959    0  335 5036.00000 4990.11959  0.91%     -    3s
     0     0 4990.18263    0  334 5036.00000 4990.18263  0.91%     -    3s
     0     0 4990.20514    0  339 5036.00000 4990.20514  0.91%     -    3s
     0     0 4990.78882    0  348 5036.00000 4990.78882  0.90%     -    3s
     0     0 4990.89510    0  326 5036.00000 4990.89510  0.90%     -    3s
     0     0 4990.92088    0  335 5036.00000 4990.92088  0.90%     -    3s
     0     0 4991.21448    0  319 5036.00000 4991.21448  0.89%     -    3s
     0     0 4991.21448    0  316 5036.00000 4991.21448  0.89%     -    3s
     0     0 4991.22626    0  124 5036.00000 4991.22626  0.89%     -    3s
     0     0 4991.22626    0  216 5036.00000 4991.22626  0.89%     -    3s
     0     0 4991.22626    0  245 5036.00000 4991.22626  0.89%     -    3s
     0     0 4991.22626    0  272 5036.00000 4991.22626  0.89%     -    4s
     0     0 4991.22626    0  298 5036.00000 4991.22626  0.89%     -    4s
     0     0 4991.72875    0  297 5036.00000 4991.72875  0.88%     -    4s
     0     0 4991.86427    0  300 5036.00000 4991.86427  0.88%     -    4s
     0     0 4991.93519    0  298 5036.00000 4991.93519  0.87%     -    4s
     0     0 4991.94673    0  302 5036.00000 4991.94673  0.87%     -    4s
     0     0 4991.95030    0  308 5036.00000 4991.95030  0.87%     -    4s
     0     0 4992.17773    0  328 5036.00000 4992.17773  0.87%     -    4s
H    0     0                    5024.0000000 4992.17773  0.63%     -    4s
     0     0 4992.18696    0  330 5024.00000 4992.18696  0.63%     -    4s
     0     0 4993.98449    0  310 5024.00000 4993.98449  0.60%     -    4s
     0     0 4994.76284    0  331 5024.00000 4994.76284  0.58%     -    4s
     0     0 4995.02457    0  342 5024.00000 4995.02457  0.58%     -    4s
     0     0 4995.07156    0  336 5024.00000 4995.07156  0.58%     -    4s
     0     0 4996.08383    0  349 5024.00000 4996.08383  0.56%     -    4s
     0     0 4996.32646    0  360 5024.00000 4996.32646  0.55%     -    4s
     0     0 4996.42208    0  372 5024.00000 4996.42208  0.55%     -    4s
     0     0 4996.44332    0  357 5024.00000 4996.44332  0.55%     -    4s
     0     0 4996.96979    0  349 5024.00000 4996.96979  0.54%     -    5s
     0     0 4997.03559    0  358 5024.00000 4997.03559  0.54%     -    5s
     0     0 4997.06709    0  368 5024.00000 4997.06709  0.54%     -    5s
     0     0 4997.58581    0  379 5024.00000 4997.58581  0.53%     -    5s
     0     0 4997.58581    0  374 5024.00000 4997.58581  0.53%     -    5s
     0     2 4997.59145    0  374 5024.00000 4997.59145  0.53%     -    5s
   883   333     cutoff   19      5024.00000 5007.71716  0.32%   352   10s
  2300   534 5019.56239   17  298 5024.00000 5013.89953  0.20%   312   15s

Cutting planes:
  Cover: 37
  Clique: 60
  MIR: 212
  StrongCG: 90
  GUB cover: 73
  Inf proof: 1
  Zero half: 6
  RLT: 13

Explored 4529 nodes (1211701 simplex iterations) in 18.98 seconds (49.41 work units)
Thread count was 8 (of 8 available processors)

Solution count 10: 5024 5036 5040 ... 158220

Optimal solution found (tolerance 1.00e-04)
Best objective 5.024000000000e+03, best bound 5.024000000000e+03, gap 0.0000%

Gurobi 9.5.2 (mac64[arm]) logging started Mon May  1 21:33:58 2023

Set parameter LogFile to value "Java/output/special_iterative/scenario_seed_1_nJob_40_machineCount_2/mip_increment_1/log.txt"
Gurobi Optimizer version 9.5.2 build v9.5.2rc0 (mac64[arm])
Thread count: 8 physical cores, 8 logical processors, using up to 8 threads
Optimize a model with 2062 rows, 7683 columns and 87322 nonzeros
Model fingerprint: 0x6f7744a8
Variable types: 0 continuous, 7683 integer (7683 binary)
Coefficient statistics:
  Matrix range     [1e+00, 2e+02]
  Objective range  [8e+01, 2e+05]
  Bounds range     [1e+00, 1e+00]
  RHS range        [1e+00, 1e+00]
Found heuristic solution: objective 643074.00000
Presolve removed 1087 rows and 1573 columns
Presolve time: 0.12s
Presolved: 975 rows, 6110 columns, 66491 nonzeros
Variable types: 0 continuous, 6110 integer (6108 binary)
Found heuristic solution: objective 492932.00000

Root relaxation: objective 1.013437e+05, 1189 iterations, 0.04 seconds (0.07 work units)

    Nodes    |    Current Node    |     Objective Bounds      |     Work
 Expl Unexpl |  Obj  Depth IntInf | Incumbent    BestBd   Gap | It/Node Time

     0     0 101343.661    0  125 492932.000 101343.661  79.4%     -    0s
H    0     0                    342111.00000 101343.661  70.4%     -    0s
H    0     0                    308128.00000 101343.661  67.1%     -    0s
H    0     0                    287371.00000 101343.661  64.7%     -    0s
H    0     0                    164550.00000 101343.661  38.4%     -    0s
     0     0 102546.443    0  152 164550.000 102546.443  37.7%     -    0s
H    0     0                    141973.00000 102546.443  27.8%     -    0s
     0     0 102546.443    0  153 141973.000 102546.443  27.8%     -    0s
     0     0 103695.789    0  190 141973.000 103695.789  27.0%     -    0s
     0     0 104000.880    0  192 141973.000 104000.880  26.7%     -    0s
     0     0 104029.258    0  186 141973.000 104029.258  26.7%     -    0s
     0     0 104031.826    0  193 141973.000 104031.826  26.7%     -    0s
     0     0 104032.007    0  195 141973.000 104032.007  26.7%     -    0s
H    0     0                    109325.00000 104032.007  4.84%     -    0s
     0     0 104683.458    0  159 109325.000 104683.458  4.25%     -    0s
     0     0 104683.458    0  117 109325.000 104683.458  4.25%     -    1s
H    0     0                    108361.00000 104683.458  3.39%     -    1s
H    0     0                    107606.00000 104683.458  2.72%     -    1s
     0     0 104683.458    0  162 107606.000 104683.458  2.72%     -    1s
     0     0 105036.238    0  160 107606.000 105036.238  2.39%     -    1s
     0     0 105062.329    0  162 107606.000 105062.329  2.36%     -    1s
     0     0 105063.293    0  160 107606.000 105063.293  2.36%     -    1s
     0     0 105445.190    0  169 107606.000 105445.190  2.01%     -    1s
     0     0 105486.054    0  168 107606.000 105486.054  1.97%     -    1s
     0     0 105501.244    0  168 107606.000 105501.244  1.96%     -    1s
     0     0 105501.244    0  169 107606.000 105501.244  1.96%     -    1s
     0     0 105886.498    0  154 107606.000 105886.498  1.60%     -    1s
H    0     0                    106810.00000 105886.498  0.86%     -    1s
     0     0 105889.788    0  155 106810.000 105889.788  0.86%     -    1s
     0     0 105889.824    0  156 106810.000 105889.824  0.86%     -    1s
     0     0 106001.521    0  131 106810.000 106001.521  0.76%     -    1s
     0     0 106001.521    0   82 106810.000 106001.521  0.76%     -    1s
     0     0 106001.521    0   91 106810.000 106001.521  0.76%     -    1s
     0     0 106001.521    0   97 106810.000 106001.521  0.76%     -    1s
     0     0 106039.938    0   88 106810.000 106039.938  0.72%     -    1s
     0     0 106039.938    0   87 106810.000 106039.938  0.72%     -    1s
     0     0 106092.900    0  105 106810.000 106092.900  0.67%     -    1s
     0     0 106175.636    0   91 106810.000 106175.636  0.59%     -    1s
     0     0 106175.636    0   92 106810.000 106175.636  0.59%     -    1s
H    0     0                    106490.00000 106175.636  0.30%     -    1s
     0     0 106175.944    0   87 106490.000 106175.944  0.29%     -    1s
     0     0 106175.944    0   90 106490.000 106175.944  0.29%     -    1s
     0     0 106217.000    0   87 106490.000 106217.000  0.26%     -    1s
     0     0 106217.000    0   39 106490.000 106217.000  0.26%     -    1s
     0     0 106226.702    0   44 106490.000 106226.702  0.25%     -    1s
     0     0 106226.911    0   49 106490.000 106226.911  0.25%     -    1s
     0     0 106227.000    0   30 106490.000 106227.000  0.25%     -    1s
     0     0 106227.000    0   31 106490.000 106227.000  0.25%     -    1s
     0     0 106228.330    0   47 106490.000 106228.330  0.25%     -    1s
     0     0 106228.375    0   45 106490.000 106228.375  0.25%     -    1s
     0     0 106228.802    0   49 106490.000 106228.802  0.25%     -    1s
     0     0 106228.802    0   48 106490.000 106228.802  0.25%     -    1s
     0     0 106229.735    0   31 106490.000 106229.735  0.24%     -    1s
     0     0 106229.735    0   48 106490.000 106229.735  0.24%     -    1s
     0     0 106229.735    0   39 106490.000 106229.735  0.24%     -    1s
     0     0 106229.835    0   45 106490.000 106229.835  0.24%     -    1s
     0     0 106230.533    0   51 106490.000 106230.533  0.24%     -    1s
     0     0 106230.915    0   44 106490.000 106230.915  0.24%     -    1s
     0     0 106230.915    0   44 106490.000 106230.915  0.24%     -    1s
     0     0 106231.392    0   50 106490.000 106231.392  0.24%     -    1s
     0     0 106231.392    0   44 106490.000 106231.392  0.24%     -    1s
H    0     2                    106328.00000 106231.784  0.09%     -    1s
     0     2 106231.784    0   44 106328.000 106231.784  0.09%     -    1s
H    3     2                    106232.00000 106231.784  0.00%  21.0    1s

Cutting planes:
  Gomory: 9
  Cover: 2
  Clique: 7
  MIR: 2
  GUB cover: 6
  Zero half: 8
  Relax-and-lift: 2

Explored 6 nodes (14344 simplex iterations) in 1.90 seconds (2.76 work units)
Thread count was 8 (of 8 available processors)

Solution count 10: 106232 106328 106490 ... 107606

Optimal solution found (tolerance 1.00e-04)
Best objective 1.062320000000e+05, best bound 1.062320000000e+05, gap 0.0000%

Gurobi 9.5.2 (mac64[arm]) logging started Mon May  1 21:34:01 2023

Set parameter LogFile to value "Java/output/special_iterative/scenario_seed_1_nJob_40_machineCount_2/mip_increment_1/log.txt"
Gurobi Optimizer version 9.5.2 build v9.5.2rc0 (mac64[arm])
Thread count: 8 physical cores, 8 logical processors, using up to 8 threads
Optimize a model with 2196 rows, 40504 columns and 455959 nonzeros
Model fingerprint: 0x7d497466
Variable types: 0 continuous, 40504 integer (40504 binary)
Coefficient statistics:
  Matrix range     [1e+00, 2e+02]
  Objective range  [2e+00, 3e+06]
  Bounds range     [1e+00, 1e+00]
  RHS range        [1e+00, 1e+00]

Warning: Completing partial solution with 40382 unfixed non-continuous variables out of 40504
User MIP start produced solution with objective 106360 (0.03s)
Loaded user MIP start with objective 106360

Presolve removed 117 rows and 5206 columns
Presolve time: 0.49s
Presolved: 2079 rows, 35298 columns, 398315 nonzeros
Variable types: 0 continuous, 35298 integer (35294 binary)
Found heuristic solution: objective 106320.00000

Root relaxation: objective 1.190201e+04, 19126 iterations, 3.16 seconds (8.24 work units)

    Nodes    |    Current Node    |     Objective Bounds      |     Work
 Expl Unexpl |  Obj  Depth IntInf | Incumbent    BestBd   Gap | It/Node Time

     0     0 11902.0129    0  558 106320.000 11902.0129  88.8%     -    4s
H    0     0                    100821.00000 11902.0129  88.2%     -    4s
H    0     0                    98666.000000 11902.0129  87.9%     -    4s
H    0     0                    98618.000000 11951.0551  87.9%     -    7s
     0     0 11951.0551    0  655 98618.0000 11951.0551  87.9%     -    8s
     0     0 11953.9953    0  675 98618.0000 11953.9953  87.9%     -    9s
H    0     0                    98530.000000 11958.3313  87.9%     -   10s
     0     0 11958.3313    0  676 98530.0000 11958.3313  87.9%     -   10s
     0     0 11958.5973    0  693 98530.0000 11958.5973  87.9%     -   10s
     0     0 11958.6331    0  684 98530.0000 11958.6331  87.9%     -   11s
     0     0 11979.3921    0  753 98530.0000 11979.3921  87.8%     -   14s
     0     0 11991.2195    0  818 98530.0000 11991.2195  87.8%     -   16s
     0     0 11993.4924    0  836 98530.0000 11993.4924  87.8%     -   17s
     0     0 11993.6008    0  837 98530.0000 11993.6008  87.8%     -   17s
     0     0 11993.6148    0  860 98530.0000 11993.6148  87.8%     -   17s
     0     0 12018.8232    0  818 98530.0000 12018.8232  87.8%     -   20s
     0     0 12032.8063    0  848 98530.0000 12032.8063  87.8%     -   24s
     0     0 12035.8567    0  897 98530.0000 12035.8567  87.8%     -   25s
     0     0 12036.4536    0  924 98530.0000 12036.4536  87.8%     -   25s
     0     0 12036.4958    0  919 98530.0000 12036.4958  87.8%     -   25s
     0     0 12036.4958    0  920 98530.0000 12036.4958  87.8%     -   25s
     0     0 12061.3750    0  901 98530.0000 12061.3750  87.8%     -   28s
     0     0 12067.1419    0  924 98530.0000 12067.1419  87.8%     -   30s
     0     0 12067.5317    0  966 98530.0000 12067.5317  87.8%     -   30s
     0     0 12067.6407    0  978 98530.0000 12067.6407  87.8%     -   31s
     0     0 12067.7510    0  969 98530.0000 12067.7510  87.8%     -   31s
     0     0 12067.9133    0  981 98530.0000 12067.9133  87.8%     -   31s
     0     0 12067.9659    0  979 98530.0000 12067.9659  87.8%     -   31s
H    0     0                    96560.000000 12082.7525  87.5%     -   33s
     0     0 12082.7525    0  957 96560.0000 12082.7525  87.5%     -   34s
     0     0 12084.9562    0 1007 96560.0000 12084.9562  87.5%     -   41s
     0     0 12085.6983    0 1037 96560.0000 12085.6983  87.5%     -   42s
     0     0 12085.7494    0 1032 96560.0000 12085.7494  87.5%     -   42s
     0     0 12100.4164    0 1001 96560.0000 12100.4164  87.5%     -   45s
     0     0 12102.4010    0 1029 96560.0000 12102.4010  87.5%     -   47s
     0     0 12102.9215    0 1039 96560.0000 12102.9215  87.5%     -   47s
     0     0 12103.0097    0 1030 96560.0000 12103.0097  87.5%     -   47s
     0     0 12107.9836    0 1056 96560.0000 12107.9836  87.5%     -   49s
     0     0 12109.5704    0 1053 96560.0000 12109.5704  87.5%     -   50s
     0     0 12110.0159    0 1090 96560.0000 12110.0159  87.5%     -   51s
     0     0 12110.9082    0 1080 96560.0000 12110.9082  87.5%     -   53s
     0     0 12110.9347    0 1105 96560.0000 12110.9347  87.5%     -   53s
     0     0 12116.4737    0 1071 96560.0000 12116.4737  87.5%     -   55s
     0     0 12116.7207    0 1080 96560.0000 12116.7207  87.5%     -   56s
     0     0 12116.8223    0 1107 96560.0000 12116.8223  87.5%     -   56s
     0     0 12121.5311    0 1073 96560.0000 12121.5311  87.4%     -   58s
     0     0 12122.8463    0 1094 96560.0000 12122.8463  87.4%     -   59s
     0     0 12123.3886    0 1089 96560.0000 12123.3886  87.4%     -   60s
     0     0 12123.4115    0 1100 96560.0000 12123.4115  87.4%     -   60s
     0     0 12126.5835    0 1095 96560.0000 12126.5835  87.4%     -   61s
     0     0 12127.5247    0 1120 96560.0000 12127.5247  87.4%     -   62s
     0     0 12128.0433    0 1106 96560.0000 12128.0433  87.4%     -   63s
     0     0 12128.2361    0 1116 96560.0000 12128.2361  87.4%     -   63s
     0     0 12128.3381    0 1115 96560.0000 12128.3381  87.4%     -   63s
     0     0 12130.1464    0 1139 96560.0000 12130.1464  87.4%     -   65s
     0     0 12130.7247    0 1112 96560.0000 12130.7247  87.4%     -   65s
     0     0 12130.9076    0 1153 96560.0000 12130.9076  87.4%     -   66s
     0     0 12131.0285    0 1160 96560.0000 12131.0285  87.4%     -   66s
     0     0 12132.6519    0 1140 96560.0000 12132.6519  87.4%     -   67s
     0     0 12133.5103    0 1157 96560.0000 12133.5103  87.4%     -   68s
     0     0 12133.5952    0 1172 96560.0000 12133.5952  87.4%     -   68s
     0     0 12135.3074    0 1144 96560.0000 12135.3074  87.4%     -   70s
     0     0 12135.7310    0 1146 96560.0000 12135.7310  87.4%     -   70s
     0     0 12135.9589    0 1156 96560.0000 12135.9589  87.4%     -   71s
     0     0 12135.9969    0 1165 96560.0000 12135.9969  87.4%     -   71s
     0     0 12136.3849    0 1158 96560.0000 12136.3849  87.4%     -   72s
     0     0 12136.3849    0 1145 96560.0000 12136.3849  87.4%     -   72s
H    0     0                    87229.000000 12136.3849  86.1%     -   82s
     0     0 12136.3849    0  564 87229.0000 12136.3849  86.1%     -   87s
H    0     0                    84532.000000 12136.3849  85.6%     -   87s
H    0     0                    69683.000000 12136.3849  82.6%     -   87s
     0     0 12136.3849    0  676 69683.0000 12136.3849  82.6%     -   90s
     0     0 12136.3849    0  755 69683.0000 12136.3849  82.6%     -   92s
     0     0 12136.3849    0  798 69683.0000 12136.3849  82.6%     -   95s
     0     0 12136.3849    0  900 69683.0000 12136.3849  82.6%     -   98s
     0     0 12136.3849    0  927 69683.0000 12136.3849  82.6%     -  100s
     0     0 12136.3849    0 1020 69683.0000 12136.3849  82.6%     -  102s
     0     0 12136.3849    0 1066 69683.0000 12136.3849  82.6%     -  104s
     0     0 12136.3849    0 1111 69683.0000 12136.3849  82.6%     -  105s
     0     0 12136.3849    0 1119 69683.0000 12136.3849  82.6%     -  106s
     0     0 12136.3849    0 1136 69683.0000 12136.3849  82.6%     -  107s
     0     0 12136.3849    0 1131 69683.0000 12136.3849  82.6%     -  107s
     0     0 12137.7210    0 1168 69683.0000 12137.7210  82.6%     -  108s
H    0     0                    66959.000000 12137.7210  81.9%     -  108s
     0     0 12139.4251    0 1178 66959.0000 12139.4251  81.9%     -  109s
     0     0 12140.4159    0 1182 66959.0000 12140.4159  81.9%     -  110s
     0     0 12140.7556    0 1188 66959.0000 12140.7556  81.9%     -  111s
     0     0 12140.8473    0 1190 66959.0000 12140.8473  81.9%     -  111s
     0     0 12143.8342    0 1164 66959.0000 12143.8342  81.9%     -  112s
     0     0 12145.6277    0 1194 66959.0000 12145.6277  81.9%     -  116s
     0     0 12146.1370    0 1211 66959.0000 12146.1370  81.9%     -  116s
     0     0 12146.3694    0 1211 66959.0000 12146.3694  81.9%     -  116s
     0     0 12146.3989    0 1224 66959.0000 12146.3989  81.9%     -  117s
     0     0 12149.1956    0 1229 66959.0000 12149.1956  81.9%     -  118s
H    0     0                    65754.000000 12149.1956  81.5%     -  118s
     0     0 12150.1987    0 1253 65754.0000 12150.1987  81.5%     -  119s
     0     0 12150.3216    0 1248 65754.0000 12150.3216  81.5%     -  119s
     0     0 12154.2344    0 1231 65754.0000 12154.2344  81.5%     -  121s
H    0     0                    65310.000000 12154.2344  81.4%     -  125s
     0     0 12155.8135    0 1253 65310.0000 12155.8135  81.4%     -  127s
     0     0 12156.0980    0 1267 65310.0000 12156.0980  81.4%     -  127s
     0     0 12156.2880    0 1281 65310.0000 12156.2880  81.4%     -  127s
     0     0 12156.4812    0 1260 65310.0000 12156.4812  81.4%     -  128s
     0     0 12156.4941    0 1281 65310.0000 12156.4941  81.4%     -  128s
     0     0 12159.4873    0 1241 65310.0000 12159.4873  81.4%     -  130s
H    0     0                    65159.000000 12159.4873  81.3%     -  130s
     0     0 12159.7131    0 1234 65159.0000 12159.7131  81.3%     -  130s
     0     0 12159.8525    0 1251 65159.0000 12159.8525  81.3%     -  130s
     0     0 12161.3283    0 1248 65159.0000 12161.3283  81.3%     -  132s
     0     0 12161.3283    0 1239 65159.0000 12161.3283  81.3%     -  132s
     0     2 12161.3283    0 1228 65159.0000 12161.3283  81.3%     -  141s
     3     8 12176.0941    2 1196 65159.0000 12162.6544  81.3%  4230  148s
     7    16 12234.2593    3 1188 65159.0000 12164.7103  81.3%  6563  157s
    15    24 12242.6145    4 1182 65159.0000 12167.6474  81.3%  6009  171s
    23    32 12260.2695    4 1138 65159.0000 12167.6474  81.3%  8447  186s
H   31    40                    50307.000000 12170.6915  75.8%  9369  198s
    39    48 12248.5465    5 1146 50307.0000 12170.6915  75.8%  8873  204s
    47    57 12257.4394    6 1147 50307.0000 12172.2454  75.8%  8165  209s
    56    65 12300.8221    6 1128 50307.0000 12172.2454  75.8%  8077  219s
H   64    73                    49200.000000 12178.7078  75.2%  7960  226s
H   65    73                    41419.000000 12178.7078  70.6%  7881  226s
H   72    81                    41323.000000 12178.7078  70.5%  7619  236s
H   74    81                    38635.000000 12178.7078  68.5%  7658  236s
H   76    81                    33257.000000 12178.7120  63.4%  7673  236s
    80    91 12275.4246    8 1137 33257.0000 12178.7120  63.4%  7542  242s
    90   102 12277.5512    8 1142 33257.0000 12178.7120  63.4%  7277  251s
H  101   110                    32112.000000 12178.7120  62.1%  7074  261s
H  104   110                    27040.000000 12178.7120  55.0%  7070  261s
H  109   119                    26891.000000 12178.7120  54.7%  6890  279s
H  113   119                    26378.000000 12178.7120  53.8%  6822  279s
   118   133 12282.9301   10 1131 26378.0000 12178.7120  53.8%  7037  286s
   132   147 12283.6527   11 1126 26378.0000 12178.7120  53.8%  6816  297s
H  146   155                    26176.000000 12178.7120  53.5%  6725  311s
   154   166 12324.8121   13 1072 26176.0000 12178.7120  53.5%  6789  320s
   165   180 12285.0518   13 1121 26176.0000 12178.7120  53.5%  6812  329s
H  179   188                    26106.000000 12178.7120  53.3%  6664  339s
H  180   188                    25896.000000 12178.7120  53.0%  6665  339s
   187   197 12322.7355   18 1075 25896.0000 12178.7120  53.0%  6589  350s
   196   221 12304.4999   18 1125 25896.0000 12178.7120  53.0%  6663  364s
   220   238 12439.2573   20 1076 25896.0000 12178.7120  53.0%  6882  412s
   237   255 12327.5156   20 1017 25896.0000 12178.7120  53.0%  6861  425s
   254   272 12385.3166   21  953 25896.0000 12178.7120  53.0%  7005  438s
   271   285 12372.2703   22  998 25896.0000 12178.7120  53.0%  7041  469s
H  277   285                    25763.000000 12178.7120  52.7%  7021  469s
H  284   293                    24932.000000 12178.7120  51.2%  7023  493s
H  285   293                    16882.000000 12178.7120  27.9%  7024  493s
   292   312 12376.0755   23  926 16882.0000 12178.7120  27.9%  6993  508s
   311   332 12387.1091   25  945 16882.0000 12178.7120  27.9%  7106  520s
H  316   332                    16875.000000 12178.7120  27.8%  7114  520s
H  323   332                    16872.000000 12178.7120  27.8%  7090  520s
   331   364 12389.4801   26  982 16872.0000 12178.7120  27.8%  7098  534s
   363   394 12401.8788   28  980 16872.0000 12178.7120  27.8%  6994  550s
H  367   394                    16871.000000 12178.7120  27.8%  6964  550s
H  374   394                    16821.000000 12178.7120  27.6%  6954  550s
   393   418 12410.5109   30  973 16821.0000 12178.7120  27.6%  6926  568s
H  416   418                    16618.000000 12178.7120  26.7%  6900  568s

Cutting planes:
  Cover: 7
  Clique: 205
  MIR: 291
  StrongCG: 157
  GUB cover: 214
  Zero half: 3
  RLT: 4

Explored 417 nodes (3132604 simplex iterations) in 568.03 seconds (1874.05 work units)
Thread count was 8 (of 8 available processors)

Solution count 10: 16618 16821 16871 ... 26106

Time limit reached
Best objective 1.661800000000e+04, best bound 1.217900000000e+04, gap 26.7120%
